n = 21;
k = 6;
maxsize = 21;
nML = 5;
nCL = 5;
deg = [4, 3, 3, 4, 4, 4, 3, 4, 3, 4, 2, 4, 4, 4, 4, 4, 3, 3, 4, 4, 4];
ML = array2d(1..5, 1..2, [18, 4, 6, 9, 12, 17, 20, 15, 19, 8]);
CL = array2d(1..5, 1..2, [5, 10, 7, 16, 13, 1, 11, 3, 2, 14]);
A = array2d(1..21, 1..21, [ 0, 1, 0, 0, 0, 0, 0, 0, 0, 0, 0, 1, 0, 0, 0, 1, 1, 0, 0, 0, 0, 1, 0, 0, 0, 1, 0, 0, 0, 0, 0, 0, 0, 0, 0, 0, 0, 0, 0, 0, 1, 0, 0, 0, 0, 0, 0, 0, 0, 1, 0, 0, 0, 0, 1, 0, 0, 0, 0, 0, 0, 1, 0, 0, 0, 0, 0, 0, 0, 0, 1, 0, 1, 0, 1, 0, 0, 0, 0, 0, 0, 0, 1, 0, 0, 1, 0, 0, 0, 0, 0, 0, 1, 1, 0, 0, 0, 0, 0, 0, 0, 0, 1, 0, 0, 0, 0, 0, 0, 0, 0, 0, 0, 0, 0, 0, 0, 1, 0, 1, 1, 1, 0, 0, 0, 0, 0, 0, 0, 0, 0, 0, 0, 1, 0, 0, 0, 0, 0, 1, 0, 0, 0, 0, 1, 0, 0, 0, 0, 1, 1, 0, 0, 1, 0, 0, 0, 0, 0, 0, 0, 0, 0, 0, 1, 0, 0, 0, 0, 0, 0, 0, 1, 0, 0, 0, 0, 1, 0, 0, 0, 0, 1, 0, 0, 0, 0, 0, 0, 0, 0, 0, 1, 1, 0, 0, 0, 1, 0, 0, 0, 0, 0, 0, 0, 1, 0, 0, 0, 0, 0, 0, 0, 0, 0, 0, 0, 0, 0, 0, 0, 1, 0, 1, 0, 0, 0, 0, 0, 0, 0, 1, 0, 0, 1, 0, 0, 0, 0, 0, 0, 1, 0, 0, 0, 0, 1, 0, 0, 0, 0, 0, 0, 0, 1, 0, 0, 1, 0, 0, 0, 0, 0, 0, 0, 0, 1, 0, 0, 0, 0, 0, 1, 0, 0, 0, 0, 0, 0, 1, 0, 0, 0, 1, 0, 0, 0, 1, 0, 0, 0, 0, 0, 1, 0, 0, 0, 0, 0, 1, 0, 0, 1, 0, 0, 0, 1, 1, 0, 0, 0, 0, 0, 0, 0, 1, 0, 0, 0, 0, 1, 0, 0, 0, 0, 0, 1, 0, 0, 0, 0, 0, 1, 0, 0, 0, 1, 0, 0, 0, 0, 1, 0, 0, 0, 1, 0, 0, 0, 0, 0, 0, 0, 0, 0, 0, 0, 0, 0, 0, 0, 0, 0, 0, 1, 0, 0, 0, 0, 0, 0, 0, 1, 0, 0, 0, 0, 1, 0, 0, 0, 0, 1, 0, 1, 0, 0, 0, 0, 0, 0, 0, 0, 0, 0, 0, 0, 1, 1, 0, 1, 1, 1, 0, 0, 0, 0, 0, 0, 0, 0, 0, 0, 0, 0, 0, 0, 1, 0, 0, 0, 0, 0, 0, 0, 0, 0, 0, 0, 0, 0, 0, 1, 1, 0, 0, 0, 1, 1, 0, 0 ]);
W = array2d(1..21, 1..21, [ -8, 1, 1, 6, 7, -6, -1, -7, 5, -5, 10, -3, 8, 3, -3, -2, 7, -10, 10, -7, -5, -3, 9, 5, 10, 5, -10, -5, 3, -8, 10, 0, -2, 4, 10, 6, 0, -5, 1, -5, -9, -4, 7, -6, -3, -1, -10, -8, 0, -10, 5, -10, -3, 8, 5, 10, -6, -10, 7, -2, -6, -4, -3, 10, -3, -4, 2, 10, -6, 1, -10, -10, -10, 9, 6, -4, -10, 4, -6, 7, -9, -6, -5, -6, -4, -3, 0, -4, -4, -10, -4, 3, 10, 4, 8, -9, -7, -7, 6, 5, -2, 7, -3, 5, -5, 2, 8, -4, -2, -2, 4, -8, 3, 4, -4, -3, 7, -9, -3, 7, 6, 6, -3, -7, -9, 4, 2, -5, 3, 6, -2, 3, -7, 5, 5, 1, -9, -5, -1, 1, -3, 1, 7, -4, -6, -8, -9, 7, 2, -4, -6, -2, 10, -6, 5, -6, -6, 7, -6, 0, -7, 8, 2, 5, 1, -7, -6, 9, -8, -7, 5, -10, -6, -1, 2, -4, -1, -9, -9, -7, 2, 4, -8, -1, -7, -1, 4, -6, -6, -9, 0, 10, 9, -8, 7, -7, -10, 7, -4, -10, -5, -9, 8, 9, 2, -6, 7, 10, 10, -3, -2, 0, -1, -1, -3, 7, 0, 9, 6, -8, 10, -1, 3, 7, 5, 9, 9, 1, 1, 0, 4, 8, -7, -1, 8, -5, -7, 6, -2, 7, 1, -1, -3, 7, -10, 0, -2, 7, -10, -4, -6, -10, 0, 9, 0, -1, 6, 5, -1, -10, 7, 9, 0, 1, -2, 9, -2, -10, 5, 8, -8, 0, -1, -1, -1, 8, 9, 5, 6, 10, -4, -2, 9, -9, -8, -9, -8, -4, -8, 3, -2, 4, -8, -4, 7, 3, -6, -3, -4, 5, -5, -1, -7, 2, -2, 3, 8, -2, 0, -2, -5, -4, -3, -4, 4, -7, 8, 0, -9, 1, -5, -1, -10, 2, 0, 0, -6, 8, 8, -4, -6, 0, 9, 0, -6, -5, 4, -4, 5, 5, 10, 6, -5, -4, 10, -5, -6, -1, 6, 6, 0, 0, -1, -4, 9, -7, 10, -8, 4, -6, 1, -7, -6, 3, 8, 5, 9, 9, -4, -7, -6, 0, 4, -1, 7, -9, -9, 4, 9, -9, 7, -7, 7, 2, 5, 9, -6, 7, -2, -10, -7, 0, -7, -2, -6, 7, -9, 2, 10, 8, -2, -7, 2, 0, 8, -5, 5, -10, 9, 3, 2, -3, -5, 6, 10, 1, -8, 5, -6, -10, 9, 5, -4, 10, -3, -2, 6, -1, -1, 6, -7, 0, 1, -6, 0, 8, -7, -7, -1, 9, 4 ]);